
Gurobi 11.0.3 (linux64) logging started Wed Apr 15 10:49:04 2026

Set parameter LogFile to value "tree/results/dmtl/dmtl_depth-2_run-2/Full MIP/LogFile_FullModel.txt"
Gurobi Optimizer version 11.0.3 build v11.0.3rc0 (linux64 - "CentOS Linux 7 (Core)")

CPU model: Intel(R) Xeon(R) Platinum 8260 CPU @ 2.40GHz, instruction set [SSE2|AVX|AVX2|AVX512]
Thread count: 96 physical cores, 192 logical processors, using up to 32 threads

Optimize a model with 7965 rows, 6778 columns and 237315 nonzeros
Model fingerprint: 0x1813651b
Model has 1072 general constraints
Variable types: 3436 continuous, 3342 integer (3342 binary)
Coefficient statistics:
  Matrix range     [4e-03, 1e+04]
  Objective range  [4e-03, 1e+04]
  Bounds range     [1e+00, 8e+02]
  RHS range        [1e-04, 2e+03]

User MIP start produced solution with objective 0.66791 (0.06s)
Loaded user MIP start with objective 0.66791

Presolve added 1068 rows and 2143 columns
Presolve time: 0.24s
Presolved: 9033 rows, 8921 columns, 241708 nonzeros
Presolved model has 2144 SOS constraint(s)
Variable types: 3435 continuous, 5486 integer (5486 binary)

Root simplex log...

Iteration    Objective       Primal Inf.    Dual Inf.      Time
    6318    8.7303558e-01   1.044865e+03   0.000000e+00      5s
    8096    1.0000000e+00   0.000000e+00   0.000000e+00      7s

Root relaxation: objective 1.000000e+00, 8096 iterations, 6.45 seconds (9.15 work units)
Total elapsed time = 18.27s (DegenMoves)
Total elapsed time = 23.51s (DegenMoves)

    Nodes    |    Current Node    |     Objective Bounds      |     Work
 Expl Unexpl |  Obj  Depth IntInf | Incumbent    BestBd   Gap | It/Node Time

     0     0    1.00000    0  853    0.66791    1.00000  49.7%     -   24s
     0     2    1.00000    0  857    0.66791    1.00000  49.7%     -   38s
     1     4    1.00000    1  856    0.66791    1.00000  49.7%  5380   43s
     3     8    1.00000    2  877    0.66791    1.00000  49.7%  3097   49s
     7    16    1.00000    3  939    0.66791    1.00000  49.7%  3449   55s
    15    32    1.00000    4  460    0.66791    1.00000  49.7%  3712   61s
    31    64    1.00000    5  444    0.66791    1.00000  49.7%  3349   66s
    63    96    1.00000    6  443    0.66791    1.00000  49.7%  1742   91s
H   95   128                       0.6716418    1.00000  48.9%  1219   98s
   127   160    1.00000    7  442    0.67164    1.00000  48.9%   958  135s
H  128   160                       0.6753731    1.00000  48.1%   950  135s
   159   192    1.00000    7  442    0.67537    1.00000  48.1%   784  200s
H  160   192                       0.7014925    1.00000  42.6%   779  200s
H  188   192                       0.7052239    1.00000  41.8%   674  200s
   228   411    1.00000    8  441    0.70522    1.00000  41.8%   564  334s
H  279   411                       0.7089552    1.00000  41.1%   475  334s
   410   825    1.00000   12  437    0.70896    1.00000  41.1%   349  678s
H  411   825                       0.7126866    1.00000  40.3%   348  678s
H  513   825                       0.7201493    1.00000  38.9%   298  678s
   824  3731    1.00000   12  437    0.72015    1.00000  38.9%   245 1274s
  3730 11283    1.00000   65  384    0.72015    1.00000  38.9%   104 1398s
 11362 12232    0.92110  198  526    0.72015    1.00000  38.9%  76.8 2044s
H11364 12232                       0.7276119    1.00000  37.4%  76.8 2044s
 12345 16255    0.92110  198  526    0.72761    1.00000  37.4%  74.9 2641s
 16760 16256    1.00000  423  162    0.72761    1.00000  37.4%  78.8 2716s
 16762 16257    1.00000  141  124    0.72761    1.00000  37.4%  78.8 2732s
 16763 16258    1.00000  232  124    0.72761    1.00000  37.4%  78.8 2741s
 16764 16262    1.00000   15  929    0.72761    1.00000  37.4%  79.9 2751s
 16770 16272    1.00000   17  616    0.72761    1.00000  37.4%  80.7 2759s
 16778 16285    1.00000   18  614    0.72761    1.00000  37.4%  82.0 2766s
 16794 16312    1.00000   19  613    0.72761    1.00000  37.4%  85.0 2771s
 16826 16333    1.00000   20  612    0.72761    1.00000  37.4%  85.3 2775s
 16858 16354    1.00000   20  611    0.72761    1.00000  37.4%  85.4 2800s
 16890 16376    1.00000   21  611    0.72761    1.00000  37.4%  90.0 2820s
 16922 16397    1.00000   21  611    0.72761    1.00000  37.4%  89.9 2884s
 16954 16418    1.00000   22  610    0.72761    1.00000  37.4%  90.1 2921s
H16966 15601                       0.7313433    1.00000  36.7%  90.2 2921s
 16986 15627    1.00000   22  610    0.73134    1.00000  36.7%  97.0 3200s
 17018 15668    1.00000   23  609    0.73134    1.00000  36.7%  97.2 3213s
 17070 15857    1.00000   23  609    0.73134    1.00000  36.7%  97.5 3238s
 17276 16525    1.00000   24 1059    0.73134    1.00000  36.7%   122 3271s
 18013 19224    1.00000   25 1078    0.73134    1.00000  36.7%   133 3396s
 20958 20617    1.00000   45 1069    0.73134    1.00000  36.7%   141 3600s

Explored 23332 nodes (3093326 simplex iterations) in 3600.21 seconds (8522.80 work units)
Thread count was 32 (of 192 available processors)

Solution count 10: 0.731343 0.727612 0.720149 ... 0.66791

Time limit reached
Best objective 7.313432835821e-01, best bound 1.000000000000e+00, gap 36.7347%

User-callback calls 2636664, time in user-callback 15.96 sec
